Maximize
	+ 1 x1 - 4 x3 - 3 x4 + 1 x5 + 4 x6 
Maximize
	+ 4 x1 - 2 x2 - 3 x4 + 3 x5 
Maximize
	+ 1 x1 + 2 x2 + 2 x3 - 2 x5 
Subject To
	+ 2 x3 + 2 x4 - 4 x5 + 5 x6 <= 9
	- 1 x2 + 6 x3 + 2 x4 + 4 x5 <= 7
	- 3 x1 + 6 x2 - 4 x3 + 2 x4 + 2 x5 <= 2
Bounds
	0 <= x1 <= 4
	0 <= x2 <= 4
	0 <= x3 <= 4
	0 <= x4 <= 4
	0 <= x5 <= 4
	0 <= x6 <= 4
Integers
	x1 x2 x3 x4 x5 x6 
End